\* Problem: Unknown *\

Maximize
 obj: + xp_0_0 + xp_0_1 + xp_0_2 + xp_0_3 + xp_0_4 + xp_0_5 + xp_0_6
 + xp_1_0 + xp_1_1 + xp_1_2 + xp_2_0 + xp_2_1 + xp_2_2 + xp_3_0 + xp_3_1
 + xp_3_2 + xp_3_3 + xp_3_4 + xp_4_0 + xp_5_0 + xp_5_1 + xp_5_2 + xp_6_0
 + xp_6_1 + xp_6_2 + xp_7_0 + xp_7_1 + xp_8_0 + xp_8_1 + xp_9_0
 + xp_10_0 + xp_11_0 + xp_11_1 + xp_11_2 + xp_11_3 + xp_12_0 + xp_13_0
 + xp_13_1 + xp_14_0 + xp_14_1 + xp_15_0 + xp_15_1 + xp_16_0 + xp_17_0
 + xp_17_1 + xp_17_2 + xp_17_3 + xp_17_4 + xp_17_5 + xp_18_0 + xp_18_1
 + xp_18_2 + xp_18_3 + xp_19_0 + xp_19_1 + xp_19_2 + xp_19_3 + xp_20_0
 + xp_20_1 + xp_20_2 + xp_20_3 + xp_21_0 + xp_21_1 + xp_21_2 + xp_21_3
 + xp_21_4 + xp_21_5 + xp_21_6 + xp_22_0 + xp_22_1 + xp_22_2 + xp_22_3
 + xp_22_4 + xp_23_0 + xp_23_1 + xp_23_2 + xp_23_3 + xp_23_4

Subject To
 r_1: 0 xp_0_0 <= 29.7154017857143
 r_2: + xp_22_4 + xp_6_2 + xp_5_1 + xp_2_2 <= 29.0077821011673
 r_3: + xp_23_4 + xp_21_5 + xp_21_4 + xp_18_2 + xp_15_1 <= 30
 r_4: + xp_18_3 + xp_17_3 + xp_15_0 + xp_3_4 <= 30
 r_5: + xp_18_0 <= 28.0263157894737
 r_6: + xp_18_1 <= 30
 r_7: + xp_20_2 <= 29.7154017857143
 r_8: + xp_22_1 + xp_11_3 + xp_5_2 + xp_3_3 + xp_3_2 + xp_2_1
 <= 29.0077821011673
 r_9: + xp_23_2 + xp_17_2 + xp_11_2 + xp_3_4 + xp_3_1 <= 30
 r_10: + xp_23_3 + xp_3_0 <= 30
 r_11: + xp_18_1 + xp_11_1 <= 28.0263157894737
 r_12: + xp_11_0 <= 30
 r_13: 0 xp_0_0 <= 30
 r_14: + xp_21_1 + xp_19_2 + xp_14_0 + xp_0_4 + xp_0_1
 <= 29.0077821011673
 r_15: + xp_21_0 + xp_19_3 <= 29.7154017857143
 r_16: + xp_21_5 + xp_21_2 + xp_19_1 + xp_0_5 + xp_0_2
 <= 29.7154017857143
 r_17: + xp_0_0 <= 28.0263157894737
 r_18: + xp_21_4 + xp_4_0 <= 29.7154017857143
 r_19: + xp_19_0 <= 29.7154017857143
 r_20: + xp_21_6 + xp_21_3 + xp_14_1 + xp_0_6 + xp_0_3
 <= 29.7154017857143
 r_21: + xp_20_1 <= 29.0077821011673
 r_22: + xp_21_6 + xp_21_1 + xp_7_1 <= 29.0077821011673
 r_23: + xp_22_4 + xp_22_3 + xp_22_1 + xp_17_4 + xp_3_2
 <= 29.0077821011673
 r_24: + xp_17_5 + xp_6_2 + xp_6_1 + xp_3_3 + xp_0_4 <= 29.0077821011673
 r_25: 0 xp_0_0 <= 29.0077821011673
 r_26: + xp_0_3 + xp_0_1 <= 28.0263157894737
 r_27: + xp_11_3 <= 29.0077821011673
 r_28: + xp_19_2 <= 29.0077821011673
 r_29: + xp_20_3 <= 29.7154017857143
 r_30: + xp_2_0 <= 29.0077821011673
 r_31: + xp_23_4 + xp_23_2 + xp_18_2 + xp_17_2 + xp_15_1 + xp_3_1
 + xp_0_6 <= 30
 r_32: 0 xp_0_0 <= 30
 r_33: + xp_11_2 + xp_3_4 + xp_2_2 <= 30
 r_34: + xp_19_3 + xp_2_1 <= 30
 r_35: 0 xp_0_0 <= 29.7154017857143
 r_36: + xp_9_0 <= 29.0077821011673
 r_37: + xp_21_2 + xp_13_1 + xp_8_1 <= 30
 r_38: + xp_23_3 + xp_1_1 <= 30
 r_39: + xp_21_5 + xp_19_1 + xp_17_4 + xp_3_2 + xp_0_5 <= 30
 r_40: + xp_0_2 <= 28.0263157894737
 r_41: + xp_12_0 <= 29.0077821011673
 r_42: + xp_21_2 <= 30
 r_43: + xp_16_0 <= 30
 r_44: + xp_23_4 + xp_23_2 + xp_23_1 + xp_1_2 <= 30
 r_45: + xp_17_5 + xp_17_2 + xp_15_1 + xp_3_3 + xp_3_1 <= 30
 r_46: + xp_18_2 + xp_0_6 + xp_0_4 <= 28.0263157894737
 r_47: + xp_22_2 + xp_13_1 <= 30
 r_48: + xp_13_0 <= 30
 r_49: + xp_17_1 <= 30
 r_50: 0 xp_0_0 <= 28.0263157894737
 r_51: + xp_23_3 + xp_8_1 + xp_1_1 <= 30
 r_52: + xp_8_0 + xp_1_2 <= 30
 r_53: + xp_1_0 <= 30
 r_54: + xp_18_3 + xp_0_5 <= 28.0263157894737
 r_55: + xp_21_5 <= 30
 r_56: + xp_19_1 <= 30
 r_57: 0 xp_0_0 <= 28.0263157894737
 r_58: + xp_22_3 + xp_17_5 + xp_17_4 + xp_6_1 + xp_5_0
 <= 28.0263157894737
 r_59: + xp_22_0 <= 28.0263157894737
 r_60: + xp_23_1 + xp_6_0 <= 28.0263157894737
 r_61: + xp_23_0 + xp_22_2 + xp_17_1 <= 28.0263157894737
 r_62: + xp_17_0 <= 28.0263157894737
 r_63: + xp_23_4 + xp_22_4 + xp_17_3 + xp_11_1 + xp_6_2 + xp_5_1
 <= 28.0263157894737
 r_64: + xp_23_3 + xp_23_2 + xp_22_1 + xp_17_2 + xp_5_2
 <= 28.0263157894737
 r_65: + xp_21_6 + xp_20_1 + xp_14_1 + xp_7_1 + xp_0_3
 <= 29.0077821011673
 r_66: + xp_21_3 + xp_20_3 + xp_7_0 + xp_0_6 <= 30
 r_67: + xp_20_2 + xp_10_0 <= 30
 r_68: + xp_20_0 <= 29.7154017857143

Bounds
 0 <= xp_0_0 <= 29.3604541666187
 0 <= xp_0_1 <= 9.26790520710462
 0 <= xp_0_2 <= 11.7296764537026
 0 <= xp_0_3 <= 5.24939541520181
 0 <= xp_0_4 <= 1.230885623299
 0 <= xp_0_5 <= 4.01850979190281
 0 <= xp_0_6 <= 4.01850979190281
 0 <= xp_1_0 <= 23.6042041113642
 0 <= xp_1_1 <= 10.3781230183724
 0 <= xp_1_2 <= 2.34110343456674
 0 <= xp_2_0 <= 25.2092049592697
 0 <= xp_2_1 <= 4.01850979190281
 0 <= xp_2_2 <= 6.58887724711719
 0 <= xp_3_0 <= 21.5647862809147
 0 <= xp_3_1 <= 5.49074711330349
 0 <= xp_3_2 <= 1.47223732140068
 0 <= xp_3_3 <= 0.736118660700341
 0 <= xp_3_4 <= 4.01850979190281
 0 <= xp_4_0 <= 27.0313901873885
 0 <= xp_5_0 <= 15.4465086785077
 0 <= xp_5_1 <= 7.72325433925385
 0 <= xp_5_2 <= 3.86162716962692
 0 <= xp_6_0 <= 17.3773222633212
 0 <= xp_6_1 <= 3.47546445266423
 0 <= xp_6_2 <= 3.47546445266423
 0 <= xp_7_0 <= 16.6532671690161
 0 <= xp_7_1 <= 6.66130686760645
 0 <= xp_8_0 <= 17.9565663387652
 0 <= xp_8_1 <= 2.99276105646087
 0 <= xp_9_0 <= 19.4288116971855
 0 <= xp_10_0 <= 19.4288116971855
 0 <= xp_11_0 <= 28.1295685433197
 0 <= xp_11_1 <= 8.03701958380562
 0 <= xp_11_2 <= 8.03701958380562
 0 <= xp_11_3 <= 12.0555293757084
 0 <= xp_12_0 <= 18.2461883764872
 0 <= xp_13_0 <= 15.205156980406
 0 <= xp_13_1 <= 2.53419283006767
 0 <= xp_14_0 <= 9.65406792406731
 0 <= xp_14_1 <= 7.24055094305048
 0 <= xp_15_0 <= 14.33629086724
 0 <= xp_15_1 <= 2.38938181120666
 0 <= xp_16_0 <= 16.0498879237619
 0 <= xp_17_0 <= 28.165751205486
 0 <= xp_17_1 <= 6.70957720722678
 0 <= xp_17_2 <= 2.69106741532397
 0 <= xp_17_3 <= 2.69106741532397
 0 <= xp_17_4 <= 4.01850979190281
 0 <= xp_17_5 <= 2.69106741532397
 0 <= xp_18_0 <= 24.0627562637182
 0 <= xp_18_1 <= 14.4569747533104
 0 <= xp_18_2 <= 4.01850979190281
 0 <= xp_18_3 <= 2.40144537760195
 0 <= xp_19_0 <= 28.7691384877598
 0 <= xp_19_1 <= 2.32903986817145
 0 <= xp_19_2 <= 2.32903986817145
 0 <= xp_19_3 <= 11.0056293964172
 0 <= xp_20_0 <= 28.5277867896581
 0 <= xp_20_1 <= 6.22687381102342
 0 <= xp_20_2 <= 6.62509205736182
 0 <= xp_20_3 <= 2.20836401912061
 0 <= xp_21_0 <= 18.01691631882
 0 <= xp_21_1 <= 3.88575430241751
 0 <= xp_21_2 <= 7.90426409432032
 0 <= xp_21_3 <= 4.01850979190281
 0 <= xp_21_4 <= 1.94287715120875
 0 <= xp_21_5 <= 4.01850979190281
 0 <= xp_21_6 <= 1.94287715120875
 0 <= xp_22_0 <= 29.8310939964267
 0 <= xp_22_1 <= 3.40305090621414
 0 <= xp_22_2 <= 3.40305090621414
 0 <= xp_22_3 <= 1.70152545310707
 0 <= xp_22_4 <= 1.70152545310707
 0 <= xp_23_0 <= 17.1601057350296
 0 <= xp_23_1 <= 11.4400704900198
 0 <= xp_23_2 <= 1.70152545310707
 0 <= xp_23_3 <= 8.03701958380562
 0 <= xp_23_4 <= 1.70152545310707

End
